57373
36, 39, 16, 10, 22, 12, 18, 4, 30, 47, 54, 49, 26, 55, 28, 3, 6, 43, 51, 40, 7, 37, 35, 24, 50, 20, 5, 41, 13, 32, 8, 38, 44, 19, 48, 17, 29, 21, 23, 53, 34, 9, 14, 2, 11, 31, 25, 27, 1, 33, 42, 45, 52, 15, 46
